Instance name: /home/cuong/CLionProjects/uMV-FSTSP/50_dis_rand_ins/v60
Write arg val: 1

drone speed: 1 miles/minute
uav non-eligible customer: 1 11 
Printing tau:
0 12.0992 66.4249 40.2036 41.3573 45.4502 38.2043 56.3884 54.7132 89.1454 71.8691 0 
12.0992 0 65.0891 47.5027 40.0215 44.1144 36.8685 55.0526 42.6139 87.8097 70.5333 12.0992 
66.4249 65.0891 0 26.2213 55.7819 44.6222 44.7885 95.9087 104.635 55.5546 47.6629 66.4249 
40.2036 47.5027 26.2213 0 41.2633 30.1036 30.2699 81.3901 90.1167 48.9419 33.1443 40.2036 
41.3573 40.0215 55.7819 41.2633 0 11.1597 10.9934 40.1268 48.8534 47.7881 30.5118 41.3573 
45.4502 44.1144 44.6222 30.1036 11.1597 0 7.24593 51.2865 60.0131 43.6952 26.4189 45.4502 
38.2043 36.8685 44.7885 30.2699 10.9934 7.24593 0 51.1202 59.8468 50.9411 33.6648 38.2043 
56.3884 55.0526 95.9087 81.3901 40.1268 51.2865 51.1202 0 16.7659 40.3541 48.2458 56.3884 
54.7132 42.6139 104.635 90.1167 48.8534 60.0131 59.8468 16.7659 0 49.5229 56.9724 54.7132 
89.1454 87.8097 55.5546 48.9419 47.7881 43.6952 50.9411 40.3541 49.5229 0 17.2763 89.1454 
71.8691 70.5333 47.6629 33.1443 30.5118 26.4189 33.6648 48.2458 56.9724 17.2763 0 71.8691 
0 0 0 0 0 0 0 0 0 0 0 0 
Printing tau_prime:
0 3.22779 22.0334 14.2049 11.076 12.1335 10.2215 19.2941 17.9128 23.6854 19.0666 0 
3.22779 0 23.8401 16.2752 10.7405 12.5746 10.7915 17.1419 15.1906 23.3471 19.0866 3.22779 
22.0334 23.8401 0 7.94764 16.2163 13.0742 14.0373 25.5705 28.6414 15.9155 12.7207 22.0334 
14.2049 16.2752 7.94764 0 10.9459 8.10274 8.04401 22.0044 23.8963 16.9358 12.155 14.2049 
11.076 10.7405 16.2163 10.9459 0 3.15192 3.03259 11.3622 12.9624 12.6719 8.37221 11.076 
12.1335 12.5746 13.0742 8.10274 3.15192 0 1.92187 13.9052 15.9882 11.9436 7.05161 12.1335 
10.2215 10.7915 14.0373 8.04401 3.03259 1.92187 0 14.3873 15.8737 13.8062 8.95921 10.2215 
19.2941 17.1419 25.5705 22.0044 11.3622 13.9052 14.3873 0 5.01189 13.7821 13.4355 19.2941 
17.9128 15.1906 28.6414 23.8963 12.9624 15.9882 15.8737 5.01189 0 18.4884 17.3591 17.9128 
23.6854 23.3471 15.9155 16.9358 12.6719 11.9436 13.8062 13.7821 18.4884 0 5.03639 23.6854 
19.0666 19.0866 12.7207 12.155 8.37221 7.05161 8.95921 13.4355 17.3591 5.03639 0 19.0666 
0 0 0 0 0 0 0 0 0 0 0 0 
Version identifier: 22.1.1.0 | 2022-11-28 | 9160aff4d
CPXPARAM_MIP_Tolerances_Integrality              0
Tried aggregator 1 time.
MIP Presolve eliminated 1 rows and 12 columns.
MIP Presolve modified 20 coefficients.
Reduced MIP has 122 rows, 120 columns, and 510 nonzeros.
Reduced MIP has 110 binaries, 0 generals, 0 SOSs, and 0 indicators.
Presolve time = 0.00 sec. (0.27 ticks)
Found incumbent of value 533.773630 after 0.00 sec. (0.75 ticks)
Probing time = 0.00 sec. (0.26 ticks)
Cover probing fixed 0 vars, tightened 10 bounds.
Tried aggregator 1 time.
Detecting symmetries...
MIP Presolve eliminated 10 rows and 0 columns.
MIP Presolve modified 180 coefficients.
Reduced MIP has 112 rows, 120 columns, and 490 nonzeros.
Reduced MIP has 110 binaries, 0 generals, 0 SOSs, and 0 indicators.
Presolve time = 0.00 sec. (0.35 ticks)
Probing time = 0.00 sec. (0.26 ticks)
Clique table members: 67.
MIP emphasis: balance optimality and feasibility.
MIP search method: dynamic search.
Parallel mode: deterministic, using up to 20 threads.
Root relaxation solution time = 0.00 sec. (0.24 ticks)

        Nodes                                         Cuts/
   Node  Left     Objective  IInf  Best Integer    Best Bound    ItCnt     Gap

*     0+    0                          533.7736        0.0000           100.00%
      0     0      192.7533    20      533.7736      192.7533       30   63.89%
*     0+    0                          315.0621      192.7533            38.82%
      0     0      267.2688    18      315.0621      Cuts: 38       47   15.17%
      0     0      267.2688    18      315.0621      Cuts: 42       58   15.17%
      0     0      267.2688    18      315.0621      Cuts: 14       64   15.17%
*     0+    0                          293.0264      267.2688             8.79%
*     0+    0                          288.8948      267.2688             7.49%
      0     0        cutoff            288.8948      288.8948       64    0.00%
Elapsed time = 0.10 sec. (7.75 ticks, tree = 0.01 MB, solutions = 4)

Clique cuts applied:  2
Implied bound cuts applied:  5
Mixed integer rounding cuts applied:  3
Multi commodity flow cuts applied:  12
Gomory fractional cuts applied:  3

Root node processing (before b&c):
  Real time             =    0.10 sec. (7.76 ticks)
Parallel b&c, 20 threads:
  Real time             =    0.00 sec. (0.00 ticks)
  Sync time (average)   =    0.00 sec.
  Wait time (average)   =    0.00 sec.
                          ------------
Total (root+branch&cut) =    0.10 sec. (7.76 ticks)

TSP solution for this instance: 0 3 2 6 4 5 10 9 7 8 1 11 
12
Warmstart X[1][0] == 1
Warmstart X[2][3] == 1
Warmstart X[3][2] == 1
Warmstart X[4][6] == 1
Warmstart X[5][4] == 1
Warmstart X[6][5] == 1
Warmstart X[7][10] == 1
Warmstart X[8][9] == 1
Warmstart X[9][7] == 1
Warmstart X[10][8] == 1
Warmstart X[11][1] == 1
---------------------------------------------
Calculate max stage gap for sortie.... 
Stage gap of 3 with smallest length = 21.7378 violated endurance constraint!
---------------------------------------------
Variable z[1][4] was set to 0.
Variable z[1][5] was set to 0.
Variable z[1][6] was set to 0.
Variable z[1][7] was set to 0.
Variable z[1][8] was set to 0.
Variable z[1][9] was set to 0.
Variable z[1][10] was set to 0.
Variable z[1][11] was set to 0.
Variable z[1][12] was set to 0.
Variable z[2][5] was set to 0.
Variable z[2][6] was set to 0.
Variable z[2][7] was set to 0.
Variable z[2][8] was set to 0.
Variable z[2][9] was set to 0.
Variable z[2][10] was set to 0.
Variable z[2][11] was set to 0.
Variable z[2][12] was set to 0.
Variable z[3][6] was set to 0.
Variable z[3][7] was set to 0.
Variable z[3][8] was set to 0.
Variable z[3][9] was set to 0.
Variable z[3][10] was set to 0.
Variable z[3][11] was set to 0.
Variable z[3][12] was set to 0.
Variable z[4][7] was set to 0.
Variable z[4][8] was set to 0.
Variable z[4][9] was set to 0.
Variable z[4][10] was set to 0.
Variable z[4][11] was set to 0.
Variable z[4][12] was set to 0.
Variable z[5][8] was set to 0.
Variable z[5][9] was set to 0.
Variable z[5][10] was set to 0.
Variable z[5][11] was set to 0.
Variable z[5][12] was set to 0.
Variable z[6][9] was set to 0.
Variable z[6][10] was set to 0.
Variable z[6][11] was set to 0.
Variable z[6][12] was set to 0.
Variable z[7][10] was set to 0.
Variable z[7][11] was set to 0.
Variable z[7][12] was set to 0.
Variable z[8][11] was set to 0.
Variable z[8][12] was set to 0.
Variable z[9][12] was set to 0.
Num constraint added = 5346
Warning:  Output names have been modified due to duplicate names or characters invalid in LP format.
Version identifier: 22.1.1.0 | 2022-11-28 | 9160aff4d
CPXPARAM_TimeLimit                               200
CPXPARAM_MIP_Tolerances_Integrality              0
1 of 1 MIP starts provided solutions.
MIP start 'm1' defined initial solution with objective 288.8948.
Tried aggregator 3 times.
MIP Presolve eliminated 6980 rows and 2278 columns.
MIP Presolve modified 2319 coefficients.
Aggregator did 42 substitutions.
Reduced MIP has 1319 rows, 2456 columns, and 57548 nonzeros.
Reduced MIP has 2435 binaries, 0 generals, 0 SOSs, and 0 indicators.
Presolve time = 0.12 sec. (324.99 ticks)
Probing fixed 200 vars, tightened 0 bounds.
Probing changed sense of 6 constraints.
Probing time = 0.03 sec. (73.34 ticks)
Cover probing fixed 0 vars, tightened 22 bounds.
Tried aggregator 2 times.
Detecting symmetries...
MIP Presolve eliminated 65 rows and 200 columns.
MIP Presolve modified 264 coefficients.
Aggregator did 13 substitutions.
Reduced MIP has 1240 rows, 2243 columns, and 46183 nonzeros.
Reduced MIP has 2222 binaries, 0 generals, 0 SOSs, and 0 indicators.
Presolve time = 0.03 sec. (71.18 ticks)
Probing time = 0.00 sec. (5.05 ticks)
Clique table members: 7704.
MIP emphasis: balance optimality and feasibility.
MIP search method: dynamic search.
Parallel mode: deterministic, using up to 20 threads.
Root relaxation solution time = 0.13 sec. (259.42 ticks)

        Nodes                                         Cuts/
   Node  Left     Objective  IInf  Best Integer    Best Bound    ItCnt     Gap

*     0+    0                          288.8948       12.0992            95.81%
      0     0      183.4628   367      288.8948      183.4628       37   36.49%
      0     0      192.0964   303      288.8948      Cuts: 75     1074   33.51%
      0     0      199.9619   290      288.8948      Cuts: 28     1820   30.78%
      0     0      202.7090   333      288.8948  ZeroHalf: 29     1943   29.83%
      0     0      204.6319   319      288.8948      Cuts: 13     2060   29.17%
      0     0      206.0081   282      288.8948      Cuts: 10     2230   28.69%
Detecting symmetries...
      0     0      206.3616   312      288.8948  ZeroHalf: 12     2310   28.57%
      0     0      207.2316   308      288.8948      Cuts: 13     2957   28.27%
      0     0      208.0314   315      288.8948       Cuts: 9     3054   27.99%
      0     0      208.7196   313      288.8948   ZeroHalf: 4     3329   27.75%
      0     0      212.2699   340      288.8948      Cuts: 23     3863   26.52%
      0     0      212.4870   330      288.8948   ZeroHalf: 2     3979   26.45%
      0     0      213.2595   347      288.8948   ZeroHalf: 8     4667   26.18%
      0     0      213.2595   352      288.8948       Cuts: 5     4687   26.18%
      0     0      213.3738   340      288.8948   ZeroHalf: 3     4833   26.14%
      0     0      213.5089   312      288.8948       Cuts: 2     4916   26.09%
      0     0      213.5697   321      288.8948   ZeroHalf: 1     4957   26.07%
      0     0      213.7152   307      288.8948   ZeroHalf: 2     5144   26.02%
      0     0      213.7403   362      288.8948   ZeroHalf: 2     5228   26.01%
Detecting symmetries...
      0     2      213.7403   341      288.8948      213.7403     5228   26.01%
Elapsed time = 1.68 sec. (3170.79 ticks, tree = 0.02 MB, solutions = 1)
     25    15      226.0135   291      288.8948      214.2708     8802   25.83%
*    49+   15                          283.0673      214.2708            24.30%
    259   119      256.7206   163      283.0673      214.4694    51948   24.23%
    439   222      227.0629   243      283.0673      214.4694    87513   24.23%
    554   242      269.4073   122      283.0673      214.4694   124813   24.23%
    942   414      262.7329   168      283.0673      214.4694   179011   24.23%
   1335   523      269.7193   177      283.0673      214.4694   214953   24.23%
   1483   706      277.9520   111      283.0673      214.4694   264963   24.23%
   1855   844      270.9887   224      283.0673      214.4694   329510   24.23%
   2310   886      259.2532   210      283.0673      214.4694   347730   24.23%
*  2681  1184      integral     0      275.9876      227.8633   465216   17.44%
   3850   987      263.2726   167      275.9876      233.5797   578422   15.37%
Elapsed time = 4.58 sec. (6276.60 ticks, tree = 0.91 MB, solutions = 3)

GUB cover cuts applied:  4
Clique cuts applied:  3
Cover cuts applied:  109
Implied bound cuts applied:  8
Mixed integer rounding cuts applied:  2
Zero-half cuts applied:  50
Gomory fractional cuts applied:  2

Root node processing (before b&c):
  Real time             =    1.64 sec. (3122.13 ticks)
Parallel b&c, 20 threads:
  Real time             =    3.86 sec. (4021.68 ticks)
  Sync time (average)   =    1.29 sec.
  Wait time (average)   =    0.00 sec.
                          ------------
Total (root+branch&cut) =    5.50 sec. (7143.81 ticks)
Feasible solution found!
Truck nodes:
Stage 1 at customer 0 with arrival time is: 0
Stage 1 at customer 0 with departure time is: 0
Stage 2 at customer 1 with arrival time is: 12.0992
Stage 2 at customer 1 with departure time is: 12.0992
Stage 3 at customer 8 with arrival time is: 54.7131
Stage 3 at customer 8 with departure time is: 54.7131
Stage 4 at customer 7 with arrival time is: 71.479
Stage 4 at customer 7 with departure time is: 71.479
Stage 5 at customer 9 with arrival time is: 111.833
Stage 5 at customer 9 with departure time is: 111.833
Stage 6 at customer 10 with arrival time is: 129.109
Stage 6 at customer 10 with departure time is: 129.109
Stage 7 at customer 5 with arrival time is: 155.528
Stage 7 at customer 5 with departure time is: 156.528
Stage 8 at customer 6 with arrival time is: 163.774
Stage 8 at customer 6 with departure time is: 164.774
Stage 9 at customer 2 with arrival time is: 209.563
Stage 9 at customer 2 with departure time is: 209.563
Stage 10 at customer 3 with arrival time is: 235.784
Stage 10 at customer 3 with departure time is: 235.784
Stage 11 at customer 11 with arrival time is: 275.988
Stage 11 at customer 11 with departure time is: 275.988
Truck arcs:
Arc 1 connecting 0 and 1 with cost 12.0992 
Arc 2 connecting 1 and 8 with cost 42.6139 
Arc 3 connecting 8 and 7 with cost 16.7659 
Arc 4 connecting 7 and 9 with cost 40.3541 
Arc 5 connecting 9 and 10 with cost 17.2763 
Arc 6 connecting 10 and 5 with cost 26.4189 
Arc 7 connecting 5 and 6 with cost 7.24593 
Arc 8 connecting 6 and 2 with cost 44.7885 
Arc 9 connecting 2 and 3 with cost 26.2213 
Arc 10 connecting 3 and 11 with cost 40.2036 
Customer 4 served by drone.
Drone fly from 5 at stage 7 to serve 4 and then fly back to 6 at stage 8. 
Truck arcs during this sortie: 5--->6
Truck travel time from stage 7 to 8 is: 7.24593
Total drone travel time: 6.18451
Drone arrival time: 162.713
Truck arrival time: 163.774
Truck departure time = max(d/a, t/a) plus (sl/sr): 164.774
Done!
-------------------------Re-calculated objective-----------------------
275.988
------------------------------------------------------------------------
Solve time: 5.509
OBJECTIVE VALUE: 275.988, NUMBER OF SORTIES: 1.
Number of revisit: 0
In write mode
